p cnf 40 193
32 -3 0
-2 -1 32 0
2 3 -32 0
1 3 -32 0
33 -5 0
33 -6 0
33 -7 0
33 -8 0
33 -9 0
33 -10 0
33 -11 0
33 -12 0
33 -13 0
33 -14 0
33 -15 0
33 -16 0
33 -17 0
33 -18 0
33 -19 0
33 -20 0
33 -21 0
33 -22 0
33 -23 0
33 -24 0
33 -25 0
33 -26 0
33 -27 0
33 -28 0
33 -29 0
33 -30 0
-4 -32 33 0
4 5 6 7 8 9 10 11 12 13 14 15 16 17 18 19 20 21 22 23 24 25 26 27 28 29 30 -33 0
5 6 7 8 9 10 11 12 13 14 15 16 17 18 19 20 21 22 23 24 25 26 27 28 29 30 32 -33 0
4 34 0
1 2 3 34 0
-4 -1 -34 0
-2 -4 -34 0
-4 -3 -34 0
-31 35 0
5 6 7 8 9 10 11 12 13 14 15 16 17 18 19 20 21 22 23 24 25 26 27 28 29 30 -34 35 0
33 35 0
31 -5 -33 -35 0
31 -6 -33 -35 0
31 -7 -33 -35 0
31 -8 -33 -35 0
31 -9 -33 -35 0
31 -10 -33 -35 0
31 -11 -33 -35 0
31 -12 -33 -35 0
31 -13 -33 -35 0
31 -14 -33 -35 0
31 -15 -33 -35 0
31 -16 -33 -35 0
31 -17 -33 -35 0
31 -18 -33 -35 0
31 -19 -33 -35 0
31 -20 -33 -35 0
31 -21 -33 -35 0
31 -22 -33 -35 0
31 -23 -33 -35 0
31 -24 -33 -35 0
31 -25 -33 -35 0
31 -26 -33 -35 0
31 -27 -33 -35 0
31 -28 -33 -35 0
31 -29 -33 -35 0
31 -30 -33 -35 0
31 34 -33 -35 0
2 36 0
1 36 0
-2 -1 -36 0
4 37 0
3 -36 37 0
-4 -3 -37 0
-4 36 -37 0
-31 38 0
5 6 7 8 9 10 11 12 13 14 15 16 17 18 19 20 21 22 23 24 25 26 27 28 29 30 -37 38 0
31 -5 -38 0
31 -6 -38 0
31 -7 -38 0
31 -8 -38 0
31 -9 -38 0
31 -10 -38 0
31 -11 -38 0
31 -12 -38 0
31 -13 -38 0
31 -14 -38 0
31 -15 -38 0
31 -16 -38 0
31 -17 -38 0
31 -18 -38 0
31 -19 -38 0
31 -20 -38 0
31 -21 -38 0
31 -22 -38 0
31 -23 -38 0
31 -24 -38 0
31 -25 -38 0
31 -26 -38 0
31 -27 -38 0
31 -28 -38 0
31 -29 -38 0
31 -30 -38 0
31 37 -38 0
-31 39 0
5 6 7 8 9 10 11 12 13 14 15 16 17 18 19 20 21 22 23 24 25 26 27 28 29 30 -34 39 0
38 39 0
31 -5 -38 -39 0
31 -6 -38 -39 0
31 -7 -38 -39 0
31 -8 -38 -39 0
31 -9 -38 -39 0
31 -10 -38 -39 0
31 -11 -38 -39 0
31 -12 -38 -39 0
31 -13 -38 -39 0
31 -14 -38 -39 0
31 -15 -38 -39 0
31 -16 -38 -39 0
31 -17 -38 -39 0
31 -18 -38 -39 0
31 -19 -38 -39 0
31 -20 -38 -39 0
31 -21 -38 -39 0
31 -22 -38 -39 0
31 -23 -38 -39 0
31 -24 -38 -39 0
31 -25 -38 -39 0
31 -26 -38 -39 0
31 -27 -38 -39 0
31 -28 -38 -39 0
31 -29 -38 -39 0
31 -30 -38 -39 0
31 34 -38 -39 0
4 40 0
1 2 3 40 0
-4 -1 -40 0
-2 -4 -40 0
-4 -3 -40 0
31 -5 -35 -39 0
31 -6 -35 -39 0
31 -7 -35 -39 0
31 -8 -35 -39 0
31 -9 -35 -39 0
31 -10 -35 -39 0
31 -11 -35 -39 0
31 -12 -35 -39 0
31 -13 -35 -39 0
31 -14 -35 -39 0
31 -15 -35 -39 0
31 -16 -35 -39 0
31 -17 -35 -39 0
31 -18 -35 -39 0
31 -19 -35 -39 0
31 -20 -35 -39 0
31 -21 -35 -39 0
31 -22 -35 -39 0
31 -23 -35 -39 0
31 -24 -35 -39 0
31 -25 -35 -39 0
31 -26 -35 -39 0
31 -27 -35 -39 0
31 -28 -35 -39 0
31 -29 -35 -39 0
31 -30 -35 -39 0
31 -35 -39 40 0
31 -5 -35 0
31 -6 -35 0
31 -7 -35 0
31 -8 -35 0
31 -9 -35 0
31 -10 -35 0
31 -11 -35 0
31 -12 -35 0
31 -13 -35 0
31 -14 -35 0
31 -15 -35 0
31 -16 -35 0
31 -17 -35 0
31 -18 -35 0
31 -19 -35 0
31 -20 -35 0
31 -21 -35 0
31 -22 -35 0
31 -23 -35 0
31 -24 -35 0
31 -25 -35 0
31 -26 -35 0
31 -27 -35 0
31 -28 -35 0
31 -29 -35 0
31 -30 -35 0
31 40 -35 0